NAME: Random_70_2
ELLAPSED_TIME_(ms): 0
TOUR_SIZE: 1744.0206
TOUR_SECTION
0
9
36
8
24
26
5
13
60
14
68
42
34
54
40
2
44
28
47
17
37
18
29
4
38
66
6
11
55
49
43
16
30
31
62
21
20
7
23
1
32
65
69
57
22
12
33
45
52
67
25
56
58
35
48
19
61
41
51
59
50
27
63
64
39
46
3
53
10
15
0
EOF
